100 151032
66 7 94 90 65 57 4 72 89 62 1 8 21 77 58 67 86 53 23 82 63 99 9 68 98 93 10 75 51 39 28 73 48 50 88 16 31 11 44 81 27 33 15 45 30 91 2 29 61 20 97 24 56 35 19 47 17 32 74 69 79 84 92 25 54 83 80 100 5 60 40 41 59 42 34 95 14 96 26 76 13 52 49 78 22 85 38 6 36 70 87 43 18 3 12 55 71 46 64 37 
